55 
300 
10.5 14.4 0 0
11.2 14.1 0 -111
18 15.9 -10 -130
18.3 13.3 -10 -60
16.5 9.3 -10 -130
15.4 11 -10 -134
14.9 13.2 -5 -116
16.3 13.3 -5 -104
16.4 17.8 -5 -74
15 17.9 5 -25
16.1 19.6 -10 -134
15.7 20.6 10 -29
13.2 20.1 10 -20
14.3 15.3 5 -29
14 5.1 10 -13
11.4 6.7 -15 -99
8.3 5 -15 -114
7.9 9.8 -10 -89
11.4 12 5 -16
11.2 17.6 5 -29
10.1 18.7 -5 -71
11.7 20.3 10 -26
10.2 22.1 10 -27
9.7 23.8 10 -11
10.1 26.4 15 -23
7.4 24 15 -26
8.2 19.9 15 -29
8.7 17.7 -10 -77
8.9 13.6 -10 -95
5.6 11.1 -10 -93
4.9 18.9 -10 -88
7.3 18.8 -10 -120
